(set-info :smt-lib-version 2.6)
(set-info :category "crafted")
(set-logic QF_FF)
(define-sort FF0 () (_ FiniteField 52435875175126190479447740508185965837690552500527637822603658699938581184513))
(declare-fun return_n0_alt () FF0)
(declare-fun mul_n12_alt () FF0)
(declare-fun mul_n28_alt () FF0)
(declare-fun mul_n19_alt () FF0)
(declare-fun b_n1_alt () FF0)
(declare-fun mul_n20_alt () FF0)
(declare-fun mul_n13_alt () FF0)
(declare-fun mul_n21_alt () FF0)
(declare-fun mul_n26_alt () FF0)
(declare-fun mul_n25_alt () FF0)
(declare-fun mul_n11_alt () FF0)
(declare-fun mul_n24_alt () FF0)
(declare-fun mul_n23_alt () FF0)
(declare-fun mul_n22_alt () FF0)
(declare-fun mul_n3_alt () FF0)
(declare-fun mul_n18_alt () FF0)
(declare-fun a_n2_alt () FF0)
(declare-fun mul_n17_alt () FF0)
(declare-fun mul_n16_alt () FF0)
(declare-fun mul_n15_alt () FF0)
(declare-fun mul_n14_alt () FF0)
(declare-fun mul_n5_alt () FF0)
(declare-fun mul_n10_alt () FF0)
(declare-fun mul_n9_alt () FF0)
(declare-fun mul_n8_alt () FF0)
(declare-fun mul_n7_alt () FF0)
(declare-fun mul_n6_alt () FF0)
(declare-fun mul_n4_alt () FF0)
(declare-fun return_n0 () FF0)
(declare-fun mul_n12 () FF0)
(declare-fun mul_n28 () FF0)
(declare-fun mul_n19 () FF0)
(declare-fun b_n1 () FF0)
(declare-fun mul_n20 () FF0)
(declare-fun mul_n13 () FF0)
(declare-fun mul_n21 () FF0)
(declare-fun mul_n26 () FF0)
(declare-fun mul_n25 () FF0)
(declare-fun mul_n11 () FF0)
(declare-fun mul_n24 () FF0)
(declare-fun mul_n23 () FF0)
(declare-fun mul_n22 () FF0)
(declare-fun mul_n3 () FF0)
(declare-fun mul_n18 () FF0)
(declare-fun a_n2 () FF0)
(declare-fun mul_n17 () FF0)
(declare-fun mul_n16 () FF0)
(declare-fun mul_n15 () FF0)
(declare-fun mul_n14 () FF0)
(declare-fun mul_n5 () FF0)
(declare-fun mul_n10 () FF0)
(declare-fun mul_n9 () FF0)
(declare-fun mul_n8 () FF0)
(declare-fun mul_n7 () FF0)
(declare-fun mul_n6 () FF0)
(declare-fun mul_n4 () FF0)
(assert 
  (let ((let0 (as ff1 FF0)))
  (let ((let1 (as ff52435875175126190479447740508185965837690552500527637822603658699938581184512 FF0)))
  (let ((let2 return_n0_alt))
  (let ((let3 (ff.mul let2 let1)))
  (let ((let4 (ff.add let3 let0)))
  (let ((let5 mul_n12_alt))
  (let ((let6 (ff.mul let5 let1)))
  (let ((let7 (ff.add let6 let0)))
  (let ((let8 mul_n28_alt))
  (let ((let9 (ff.mul let8 let7)))
  (let ((let10 (= let9 let4)))
  (let ((let11 mul_n19_alt))
  (let ((let12 b_n1_alt))
  (let ((let13 (ff.mul let12 let1)))
  (let ((let14 mul_n20_alt))
  (let ((let15 (ff.mul let14 let1)))
  (let ((let16 mul_n13_alt))
  (let ((let17 (ff.add let16 let15 let13 let11 let0)))
  (let ((let18 mul_n21_alt))
  (let ((let19 (ff.mul let18 let17)))
  (let ((let20 (= let19 let8)))
  (let ((let21 mul_n26_alt))
  (let ((let22 mul_n25_alt))
  (let ((let23 (ff.mul let22 let18)))
  (let ((let24 (= let23 let21)))
  (let ((let25 mul_n11_alt))
  (let ((let26 mul_n24_alt))
  (let ((let27 (ff.mul let26 let25)))
  (let ((let28 (= let27 let22)))
  (let ((let29 mul_n23_alt))
  (let ((let30 (ff.mul let29 let12)))
  (let ((let31 (= let30 let26)))
  (let ((let32 mul_n22_alt))
  (let ((let33 (ff.mul let32 let5)))
  (let ((let34 (= let33 let29)))
  (let ((let35 (ff.mul let25 let1)))
  (let ((let36 (ff.add let35 let0)))
  (let ((let37 mul_n3_alt))
  (let ((let38 (ff.mul let37 let36)))
  (let ((let39 (= let38 let32)))
  (let ((let40 (ff.mul let25 let25)))
  (let ((let41 (= let40 let18)))
  (let ((let42 (as ff2 FF0)))
  (let ((let43 (ff.mul let11 let42)))
  (let ((let44 (as ff52435875175126190479447740508185965837690552500527637822603658699938581184511 FF0)))
  (let ((let45 (ff.mul let12 let44)))
  (let ((let46 (ff.add let45 let43 let42)))
  (let ((let47 (ff.mul let46 let16)))
  (let ((let48 (= let47 let14)))
  (let ((let49 mul_n18_alt))
  (let ((let50 (ff.mul let49 let1)))
  (let ((let51 (ff.add let12 let50)))
  (let ((let52 (ff.mul let16 let51)))
  (let ((let53 (= let52 let11)))
  (let ((let54 a_n2_alt))
  (let ((let55 (ff.mul let54 let1)))
  (let ((let56 (ff.add let55 let0)))
  (let ((let57 mul_n17_alt))
  (let ((let58 (ff.mul let57 let56)))
  (let ((let59 (= let58 let49)))
  (let ((let60 mul_n16_alt))
  (let ((let61 (ff.mul let60 let25)))
  (let ((let62 (= let61 let57)))
  (let ((let63 mul_n15_alt))
  (let ((let64 (ff.mul let63 let25)))
  (let ((let65 (= let64 let60)))
  (let ((let66 (ff.mul let16 let1)))
  (let ((let67 (ff.add let66 let0)))
  (let ((let68 mul_n14_alt))
  (let ((let69 (ff.mul let68 let67)))
  (let ((let70 (= let69 let63)))
  (let ((let71 (ff.mul let67 let25)))
  (let ((let72 (= let71 let68)))
  (let ((let73 (ff.mul let36 let36)))
  (let ((let74 (= let73 let16)))
  (let ((let75 mul_n5_alt))
  (let ((let76 (ff.mul let75 let1)))
  (let ((let77 (ff.add let76 let0)))
  (let ((let78 (ff.mul let77 let36)))
  (let ((let79 (= let78 let5)))
  (let ((let80 mul_n10_alt))
  (let ((let81 (ff.mul let80 let75)))
  (let ((let82 (= let81 let25)))
  (let ((let83 mul_n9_alt))
  (let ((let84 (ff.mul let83 let37)))
  (let ((let85 (= let84 let80)))
  (let ((let86 (ff.add let13 let0)))
  (let ((let87 mul_n8_alt))
  (let ((let88 (ff.mul let87 let86)))
  (let ((let89 (= let88 let83)))
  (let ((let90 mul_n7_alt))
  (let ((let91 (ff.mul let90 let56)))
  (let ((let92 (= let91 let87)))
  (let ((let93 mul_n6_alt))
  (let ((let94 (ff.mul let93 let75)))
  (let ((let95 (= let94 let90)))
  (let ((let96 (ff.mul let86 let75)))
  (let ((let97 (= let96 let93)))
  (let ((let98 mul_n4_alt))
  (let ((let99 (ff.mul let98 let37)))
  (let ((let100 (= let99 let75)))
  (let ((let101 (ff.mul let37 let56)))
  (let ((let102 (= let101 let98)))
  (let ((let103 (ff.mul let56 let86)))
  (let ((let104 (= let103 let37)))
  (let ((let105 (and let104 let102 let100 let97 let95 let92 let89 let85 let82 let79 let74 let72 let70 let65 let62 let59 let53 let48 let41 let39 let34 let31 let28 let24 let20 let10)))
  (let ((let106 return_n0))
  (let ((let107 (ff.mul let106 let1)))
  (let ((let108 (ff.add let107 let0)))
  (let ((let109 mul_n12))
  (let ((let110 (ff.mul let109 let1)))
  (let ((let111 (ff.add let110 let0)))
  (let ((let112 mul_n28))
  (let ((let113 (ff.mul let112 let111)))
  (let ((let114 (= let113 let108)))
  (let ((let115 mul_n19))
  (let ((let116 b_n1))
  (let ((let117 (ff.mul let116 let1)))
  (let ((let118 mul_n20))
  (let ((let119 (ff.mul let118 let1)))
  (let ((let120 mul_n13))
  (let ((let121 (ff.add let120 let119 let117 let115 let0)))
  (let ((let122 mul_n21))
  (let ((let123 (ff.mul let122 let121)))
  (let ((let124 (= let123 let112)))
  (let ((let125 mul_n26))
  (let ((let126 mul_n25))
  (let ((let127 (ff.mul let126 let122)))
  (let ((let128 (= let127 let125)))
  (let ((let129 mul_n11))
  (let ((let130 mul_n24))
  (let ((let131 (ff.mul let130 let129)))
  (let ((let132 (= let131 let126)))
  (let ((let133 mul_n23))
  (let ((let134 (ff.mul let133 let116)))
  (let ((let135 (= let134 let130)))
  (let ((let136 mul_n22))
  (let ((let137 (ff.mul let136 let109)))
  (let ((let138 (= let137 let133)))
  (let ((let139 (ff.mul let129 let1)))
  (let ((let140 (ff.add let139 let0)))
  (let ((let141 mul_n3))
  (let ((let142 (ff.mul let141 let140)))
  (let ((let143 (= let142 let136)))
  (let ((let144 (ff.mul let129 let129)))
  (let ((let145 (= let144 let122)))
  (let ((let146 (ff.mul let115 let42)))
  (let ((let147 (ff.mul let116 let44)))
  (let ((let148 (ff.add let147 let146 let42)))
  (let ((let149 (ff.mul let148 let120)))
  (let ((let150 (= let149 let118)))
  (let ((let151 mul_n18))
  (let ((let152 (ff.mul let151 let1)))
  (let ((let153 (ff.add let116 let152)))
  (let ((let154 (ff.mul let120 let153)))
  (let ((let155 (= let154 let115)))
  (let ((let156 a_n2))
  (let ((let157 (ff.mul let156 let1)))
  (let ((let158 (ff.add let157 let0)))
  (let ((let159 mul_n17))
  (let ((let160 (ff.mul let159 let158)))
  (let ((let161 (= let160 let151)))
  (let ((let162 mul_n16))
  (let ((let163 (ff.mul let162 let129)))
  (let ((let164 (= let163 let159)))
  (let ((let165 mul_n15))
  (let ((let166 (ff.mul let165 let129)))
  (let ((let167 (= let166 let162)))
  (let ((let168 (ff.mul let120 let1)))
  (let ((let169 (ff.add let168 let0)))
  (let ((let170 mul_n14))
  (let ((let171 (ff.mul let170 let169)))
  (let ((let172 (= let171 let165)))
  (let ((let173 (ff.mul let169 let129)))
  (let ((let174 (= let173 let170)))
  (let ((let175 (ff.mul let140 let140)))
  (let ((let176 (= let175 let120)))
  (let ((let177 mul_n5))
  (let ((let178 (ff.mul let177 let1)))
  (let ((let179 (ff.add let178 let0)))
  (let ((let180 (ff.mul let179 let140)))
  (let ((let181 (= let180 let109)))
  (let ((let182 mul_n10))
  (let ((let183 (ff.mul let182 let177)))
  (let ((let184 (= let183 let129)))
  (let ((let185 mul_n9))
  (let ((let186 (ff.mul let185 let141)))
  (let ((let187 (= let186 let182)))
  (let ((let188 (ff.add let117 let0)))
  (let ((let189 mul_n8))
  (let ((let190 (ff.mul let189 let188)))
  (let ((let191 (= let190 let185)))
  (let ((let192 mul_n7))
  (let ((let193 (ff.mul let192 let158)))
  (let ((let194 (= let193 let189)))
  (let ((let195 mul_n6))
  (let ((let196 (ff.mul let195 let177)))
  (let ((let197 (= let196 let192)))
  (let ((let198 (ff.mul let188 let177)))
  (let ((let199 (= let198 let195)))
  (let ((let200 mul_n4))
  (let ((let201 (ff.mul let200 let141)))
  (let ((let202 (= let201 let177)))
  (let ((let203 (ff.mul let141 let158)))
  (let ((let204 (= let203 let200)))
  (let ((let205 (ff.mul let158 let188)))
  (let ((let206 (= let205 let141)))
  (let ((let207 (and let206 let204 let202 let199 let197 let194 let191 let187 let184 let181 let176 let174 let172 let167 let164 let161 let155 let150 let145 let143 let138 let135 let132 let128 let124 let114)))
  (let ((let208 (= let106 let2)))
  (let ((let209 (not let208)))
  (let ((let210 (= let116 let12)))
  (let ((let211 (= let156 let54)))
  (let ((let212 (and let211 let210)))
  (let ((let213 (and let212 let209 let207 let105)))
  let213
))))))))))))))))))))))))))))))))))))))))))))))))))))))))))))))))))))))))))))))))))))))))))))))))))))))))))))))))))))))))))))))))))))))))))))))))))))))))))))))))))))))))))))))))))))))))))))))))))))))))))))))))))))))
)
(check-sat)
